 # LAMMPS timestep 122
  
          32  atoms
           3  atom types
 
      0.000000000000       7.112232239530  xlo xhi
      0.000000000000       7.524758100038  ylo yhi
      0.000000000000       5.429857990800  zlo zhi
     -2.146909993033      -1.066345733034      -0.301418227789  xy xz yz
 
Masses
 
            1   26.98153860             # Al
            2   28.08500000             # Si
            3   15.99900000             # O
 
Atoms # charge
 
         1    1   1.800000        3.517419845832       5.451014446031       2.482474250204
         2    1   1.800000        2.797500845832       5.264774446031       5.152914250204
         3    1   1.800000        2.415980845832       3.023524446031       3.492764250204
         4    1   1.800000        1.868371845832       7.143554446031       0.879733250204
         5    2   2.400000        4.446931845832       0.580596446031       3.827574250204
         6    2   2.400000        4.378601845832       2.745644446031       1.047814250204
         7    3  -1.200000        3.588623845832       1.369544446031       0.734605250204
         8    3  -1.200000        2.404457845832       5.383994446031       0.959660250204
         9    3  -1.200000        3.189208745832       3.427914446031       5.229794250204
        10    3  -1.200000        2.227392845832       7.070884446031       5.041604250204
        11    3  -1.200000        2.993198845832       1.267904446031       3.637744250204
        12    3  -1.200000        2.015981845832       4.867874446031       3.472244250204
        13    3  -1.200000        3.813040845832       3.508034446031       2.322924250204
        14    3  -1.200000        2.725773845832       7.300894446031       2.530434250204
        15    3  -1.200000        5.906501845832       2.296554446031       1.352364250204
        16    3  -1.200000        5.480941845832       1.794604446031       4.079504250204
        17    1   1.800000        6.808071845832       2.375164446031       2.947384250204
        18    1   1.800000        7.527991845832       2.561404446031       0.276939250204
        19    1   1.800000        7.909501845832       4.802654446031       1.937094250204
        20    1   1.800000        8.457121845832       0.682626446031       4.550124250204
        21    2   2.400000        5.878561845832       7.245584446031       1.602284250204
        22    2   2.400000        5.946881845832       5.080534446031       4.382044250204
        23    3  -1.200000        6.736861845832       6.456624446031       4.695254250204
        24    3  -1.200000        7.921031845832       2.442184446031       4.470194250204
        25    3  -1.200000        7.136281845832       4.398264446031       0.200059250204
        26    3  -1.200000        8.098091845832       0.755288446031       0.388250250204
        27    3  -1.200000        7.332291845832       6.558274446031       1.792114250204
        28    3  -1.200000        8.309501845832       2.958304446031       1.957614250204
        29    3  -1.200000        6.512451845832       4.318144446031       3.106934250204
        30    3  -1.200000        7.599711845832       0.525284446031       2.899424250204
        31    3  -1.200000        4.418991845832       5.529614446031       4.077494250204
        32    3  -1.200000        4.844541845832       6.031574446031       1.350354250204
